0 4381
2401 4280
4802 4191
7203 4119
9604 4064
12005 4019
14406 3990
16807 3948
19208 3903
21609 3882
24010 3869
26411 3801
28812 3771
31213 3745
33614 3735
36015 3722
38416 3696
40817 3682
43218 3667
45619 3662
48020 3638
50421 3630
52822 3623
55223 3616
57624 3612
60025 3602
62426 3600
64827 3598
67228 3592
69629 3581
72030 3569
74431 3561
